Tried aggregator 1 time.
MIP Presolve eliminated 15 rows and 1 columns.
Reduced MIP has 72 rows, 64 columns, and 266 nonzeros.
Reduced MIP has 56 binaries, 0 generals, 0 SOSs, and 0 indicators.
Presolve time = 0.00 sec. (0.15 ticks)
Probing time = 0.00 sec. (0.13 ticks)
Cover probing fixed 0 vars, tightened 9 bounds.
Tried aggregator 1 time.
MIP Presolve eliminated 1 rows and 0 columns.
MIP Presolve modified 96 coefficients.
Reduced MIP has 71 rows, 64 columns, and 264 nonzeros.
Reduced MIP has 56 binaries, 0 generals, 0 SOSs, and 0 indicators.
Presolve time = 0.00 sec. (0.14 ticks)
Probing fixed 0 vars, tightened 7 bounds.
Probing time = 0.00 sec. (0.15 ticks)
Clique table members: 37.
MIP emphasis: balance optimality and feasibility.
MIP search method: dynamic search.
Parallel mode: deterministic, using up to 8 threads.
Root relaxation solution time = 0.00 sec. (0.17 ticks)

        Nodes                                         Cuts/
   Node  Left     Objective  IInf  Best Integer    Best Bound    ItCnt     Gap

*     0+    0                           28.2000        8.1000       20   71.28%
      0     0        8.8000    15       28.2000        8.8000       20   68.79%
      0     0        8.8000    16       28.2000      Cuts: 11       31   68.79%
*     0+    0                           27.3000        8.8000       31   67.77%
      0     0        8.8000    15       27.3000       Cuts: 9       44   67.77%
*     0+    0                           26.2000        8.8000       44   66.41%
*     0+    0                           23.1000        8.8000       44   61.90%
*     0+    0                           23.1000        8.8000       44   61.90%
      0     2        8.8000    11       23.1000        8.8000       44   61.90%
Elapsed time = 0.05 sec. (5.19 ticks, tree = 0.01 MB, solutions = 4)
*   478+  191                           22.0000        9.3377     2226   57.56%
*  1007+  274                           21.5000        9.7851     4136   54.49%

Implied bound cuts applied:  140
Flow cuts applied:  1
Mixed integer rounding cuts applied:  11

Root node processing (before b&c):
  Real time             =    0.05 sec. (5.13 ticks)
Parallel b&c, 8 threads:
  Real time             =    0.19 sec. (27.61 ticks)
  Sync time (average)   =    0.04 sec.
  Wait time (average)   =    0.00 sec.
                          ------------
Total (root+branch&cut) =    0.23 sec. (32.74 ticks)
Matrix of time distances is
Node: 0
 1.7976931348623157E308  5.5  4.2  2.6  2.4  1.3  2.5  4.3 
Node: 1
 4.7  1.7976931348623157E308  3.7  2.1  5.1  6.0  7.2  9.0 
Node: 2
 4.2  4.5  1.7976931348623157E308  1.6  3.2  5.5  6.7  8.5 
Node: 3
 2.6  2.9  1.6  1.7976931348623157E308  3.0  3.9  5.1  6.9 
Node: 4
 3.8  4.1  2.8  1.2  1.7976931348623157E308  5.1  6.3  8.1 
Node: 5
 3.9  7.4  6.1  4.5  3.3  1.7976931348623157E308  1.2  3.0 
Node: 6
 3.5  7.0  5.7  4.1  2.9  1.2  1.7976931348623157E308  2.3 
Node: 7
 5.8  9.3  8.0  6.4  5.2  3.0  2.3  1.7976931348623157E308 

Solution status = Optimal

Problem size: 8

Makespan 21.500000000000018

The variables t_{i} 
 Tour from Node 0 begins at time 0.0 <--- t[0]
----> Node: 1 is visited at time 16.80000000000002 <--- t[1]
----> Node: 2 is visited at time 12.299999999999997 <--- t[2]
----> Node: 3 is visited at time 13.900000000000043 <--- t[3]
----> Node: 4 is visited at time 9.49999999999989 <--- t[4]
----> Node: 5 is visited at time 1.2999999999999545 <--- t[5]
----> Node: 6 is visited at time 6.599999999999912 <--- t[6]
----> Node: 7 is visited at time 4.2999999999998435 <--- t[7]

The variables y_{ij} 
y[0][5] = 1.0
y[1][0] = 1.0
y[2][3] = 1.0
y[3][1] = 1.0
y[4][2] = 1.0
y[5][7] = 1.0
y[6][4] = 1.0
y[7][6] = 1.0
